\* TJ_Nut_Mixes_Blending_Problem *\
Maximize
Total_Profit_Contribution: 2 Mix_DELUXE + 2.25 Mix_HOLIDAY + 1.65 Mix_REGULAR
Subject To
Almond_Amount: 0.2 Mix_DELUXE + 0.25 Mix_HOLIDAY + 0.15 Mix_REGULAR <= 6000
Brazil_Amount: 0.2 Mix_DELUXE + 0.15 Mix_HOLIDAY + 0.25 Mix_REGULAR <= 7500
Deluxe_Amount: Mix_DELUXE >= 3000
Filbert_Amount: 0.2 Mix_DELUXE + 0.15 Mix_HOLIDAY + 0.25 Mix_REGULAR <= 7500
Holiday_Amount: Mix_HOLIDAY >= 5000
Pecan_Amount: 0.2 Mix_DELUXE + 0.25 Mix_HOLIDAY + 0.1 Mix_REGULAR <= 6000
Regular_Amount: Mix_REGULAR >= 10000
Walnut_Amount: 0.2 Mix_DELUXE + 0.2 Mix_HOLIDAY + 0.25 Mix_REGULAR <= 7500
End
